c instance by G2
c solution = 0011100
c Known solution cost is 275 
p cnf 7 30
w 0 78 26 1 67 92 11
3 2 -5 0
-2 1 -3 0
4 -3 2 0
-3 -7 1 0
-7 2 -4 0
-3 6 -1 0
5 -4 -1 0
3 7 6 0
-6 2 -3 0
3 -2 5 0
6 4 2 0
3 -1 -4 0
6 2 5 0
-2 -1 -4 0
-7 3 -2 0
5 1 3 0
5 7 4 0
1 5 -3 0
3 -1 4 0
-1 -3 2 0
5 7 -6 0
-6 4 7 0
6 -3 -7 0
-3 5 2 0
-4 -7 -3 0
2 -1 -7 0
-4 -7 1 0
2 4 1 0
3 4 7 0
-5 -1 3 0
